456
363
390
258
486
286
615
410
363
329
370
330
435
560
516
280
313
290
241
274
251
434
240
425
228
193
443
426
886
620
332
528
436
313
325
423
413
227
266
372
564
432
410
403
452
299
522
187
453
325
329
265
379
462
446
439
344
309
505
390
341
386
334
373
480
505
554
425
363
299
433
406
306
436
355
335
702
385
357
591
490
500
317
342
456
364
366
358
395
373
367
273
426
449
276
324
417
310
202
320
